\ENCODING=ISO-8859-1
\Problem name: IloCplex

Minimize
 #0:
Subject To
 fbDA(0)(1)(0)#0:         gen(0)(1)(0)#0 - flow(0)(1,2)(0)#27
                          - flow(0)(1,3)(0)#28  = 0
 fbDA(0)(2)(0)#1:         gen(0)(2)(0)#1 + dem(0)(1)(0)#6 + flow(0)(1,2)(0)#27
                          - flow(0)(2,4)(0)#29 - flow(0)(2,5)(0)#31
                          - flow(0)(2,6)(0)#32  = 0
 fbDA(0)(3)(0)#2:         dem(0)(2)(0)#7 + flow(0)(1,3)(0)#28
                          - flow(0)(3,4)(0)#30  = 0
 fbDA(0)(4)(0)#3:         dem(0)(3)(0)#8 + flow(0)(2,4)(0)#29
                          + flow(0)(3,4)(0)#30 - flow(0)(4,6)(0)#33
                          - flow(0)(4,12)(0)#41  = 0
 fbDA(0)(5)(0)#4:         gen(0)(3)(0)#2 + dem(0)(4)(0)#9 + flow(0)(2,5)(0)#31
                          - flow(0)(5,7)(0)#34  = 0
 fbDA(0)(6)(0)#5:         flow(0)(2,6)(0)#32 + flow(0)(4,6)(0)#33
                          - flow(0)(6,7)(0)#35 - flow(0)(6,8)(0)#36
                          - flow(0)(6,9)(0)#37 - flow(0)(6,10)(0)#38
                          - flow(0)(6,28)(0)#67  = 0
 fbDA(0)(7)(0)#6:         dem(0)(5)(0)#10 + flow(0)(5,7)(0)#34
                          + flow(0)(6,7)(0)#35  = 0
 fbDA(0)(8)(0)#7:         gen(0)(4)(0)#3 + dem(0)(6)(0)#11 + flow(0)(6,8)(0)#36
                          - flow(0)(8,28)(0)#66  = 0
 fbDA(0)(9)(0)#8:         flow(0)(6,9)(0)#37 - flow(0)(9,11)(0)#39
                          - flow(0)(9,10)(0)#40  = 0
 fbDA(0)(10)(0)#9:        dem(0)(7)(0)#12 + flow(0)(6,10)(0)#38
                          + flow(0)(9,10)(0)#40 - flow(0)(10,20)(0)#51
                          - flow(0)(10,17)(0)#52 - flow(0)(10,21)(0)#53
                          - flow(0)(10,22)(0)#54  = 0
 fbDA(0)(11)(0)#10:       gen(0)(5)(0)#4 + flow(0)(9,11)(0)#39  = 0
 fbDA(0)(12)(0)#11:       dem(0)(8)(0)#13 + flow(0)(4,12)(0)#41
                          - flow(0)(12,13)(0)#42 - flow(0)(12,14)(0)#43
                          - flow(0)(12,15)(0)#44 - flow(0)(12,16)(0)#45  = 0
 fbDA(0)(13)(0)#12:       gen(0)(6)(0)#5 + flow(0)(12,13)(0)#42  = 0
 fbDA(0)(14)(0)#13:       dem(0)(9)(0)#14 + flow(0)(12,14)(0)#43
                          - flow(0)(14,15)(0)#46  = 0
 fbDA(0)(15)(0)#14:       dem(0)(10)(0)#15 + flow(0)(12,15)(0)#44
                          + flow(0)(14,15)(0)#46 - flow(0)(15,18)(0)#48
                          - flow(0)(15,23)(0)#56  = 0
 fbDA(0)(16)(0)#15:       dem(0)(11)(0)#16 + flow(0)(12,16)(0)#45
                          - flow(0)(16,17)(0)#47  = 0
 fbDA(0)(17)(0)#16:       dem(0)(12)(0)#17 + flow(0)(16,17)(0)#47
                          + flow(0)(10,17)(0)#52  = 0
 fbDA(0)(18)(0)#17:       dem(0)(13)(0)#18 + flow(0)(15,18)(0)#48
                          - flow(0)(18,19)(0)#49  = 0
 fbDA(0)(19)(0)#18:       dem(0)(14)(0)#19 + flow(0)(18,19)(0)#49
                          - flow(0)(19,20)(0)#50  = 0
 fbDA(0)(20)(0)#19:       dem(0)(15)(0)#20 + flow(0)(19,20)(0)#50
                          + flow(0)(10,20)(0)#51  = 0
 fbDA(0)(21)(0)#20:       dem(0)(16)(0)#21 + flow(0)(10,21)(0)#53
                          - flow(0)(21,22)(0)#55  = 0
 fbDA(0)(22)(0)#21:       flow(0)(10,22)(0)#54 + flow(0)(21,22)(0)#55
                          - flow(0)(22,24)(0)#57  = 0
 fbDA(0)(23)(0)#22:       dem(0)(17)(0)#22 + flow(0)(15,23)(0)#56
                          - flow(0)(23,24)(0)#58  = 0
 fbDA(0)(24)(0)#23:       dem(0)(18)(0)#23 + flow(0)(22,24)(0)#57
                          + flow(0)(23,24)(0)#58 - flow(0)(24,25)(0)#59  = 0
 fbDA(0)(25)(0)#24:       flow(0)(24,25)(0)#59 - flow(0)(25,26)(0)#60
                          - flow(0)(25,27)(0)#61  = 0
 fbDA(0)(26)(0)#25:       dem(0)(19)(0)#24 + flow(0)(25,26)(0)#60  = 0
 fbDA(0)(27)(0)#26:       flow(0)(25,27)(0)#61 + flow(0)(28,27)(0)#62
                          - flow(0)(27,29)(0)#63 - flow(0)(27,30)(0)#64  = 0
 fbDA(0)(28)(0)#27:       - flow(0)(28,27)(0)#62 + flow(0)(8,28)(0)#66
                          + flow(0)(6,28)(0)#67  = 0
 fbDA(0)(29)(0)#28:       dem(0)(20)(0)#25 + flow(0)(27,29)(0)#63
                          - flow(0)(29,30)(0)#65  = 0
 fbDA(0)(30)(0)#29:       dem(0)(21)(0)#26 + flow(0)(27,30)(0)#64
                          + flow(0)(29,30)(0)#65  = 0
 dcDA(0)(1,2)(0)#30:      flow(0)(1,2)(0)#27 - 100 theta(0)(1)(0)#68
                          + 100 theta(0)(2)(0)#69  = 0
 dcDA(0)(1,3)(0)#31:      flow(0)(1,3)(0)#28 - 100 theta(0)(1)(0)#68
                          + 100 theta(0)(3)(0)#70  = 0
 dcDA(0)(2,4)(0)#32:      flow(0)(2,4)(0)#29 - 100 theta(0)(2)(0)#69
                          + 100 theta(0)(4)(0)#71  = 0
 dcDA(0)(3,4)(0)#33:      flow(0)(3,4)(0)#30 - 100 theta(0)(3)(0)#70
                          + 100 theta(0)(4)(0)#71  = 0
 dcDA(0)(2,5)(0)#34:      flow(0)(2,5)(0)#31 - 100 theta(0)(2)(0)#69
                          + 100 theta(0)(5)(0)#72  = 0
 dcDA(0)(2,6)(0)#35:      flow(0)(2,6)(0)#32 - 100 theta(0)(2)(0)#69
                          + 100 theta(0)(6)(0)#73  = 0
 dcDA(0)(4,6)(0)#36:      flow(0)(4,6)(0)#33 - 100 theta(0)(4)(0)#71
                          + 100 theta(0)(6)(0)#73  = 0
 dcDA(0)(5,7)(0)#37:      flow(0)(5,7)(0)#34 - 100 theta(0)(5)(0)#72
                          + 100 theta(0)(7)(0)#74  = 0
 dcDA(0)(6,7)(0)#38:      flow(0)(6,7)(0)#35 - 100 theta(0)(6)(0)#73
                          + 100 theta(0)(7)(0)#74  = 0
 dcDA(0)(6,8)(0)#39:      flow(0)(6,8)(0)#36 - 100 theta(0)(6)(0)#73
                          + 100 theta(0)(8)(0)#75  = 0
 dcDA(0)(6,9)(0)#40:      flow(0)(6,9)(0)#37 - 100 theta(0)(6)(0)#73
                          + 100 theta(0)(9)(0)#76  = 0
 dcDA(0)(6,10)(0)#41:     flow(0)(6,10)(0)#38 - 100 theta(0)(6)(0)#73
                          + 100 theta(0)(10)(0)#77  = 0
 dcDA(0)(9,11)(0)#42:     flow(0)(9,11)(0)#39 - 100 theta(0)(9)(0)#76
                          + 100 theta(0)(11)(0)#78  = 0
 dcDA(0)(9,10)(0)#43:     flow(0)(9,10)(0)#40 - 100 theta(0)(9)(0)#76
                          + 100 theta(0)(10)(0)#77  = 0
 dcDA(0)(4,12)(0)#44:     flow(0)(4,12)(0)#41 - 100 theta(0)(4)(0)#71
                          + 100 theta(0)(12)(0)#79  = 0
 dcDA(0)(12,13)(0)#45:    flow(0)(12,13)(0)#42 - 100 theta(0)(12)(0)#79
                          + 100 theta(0)(13)(0)#80  = 0
 dcDA(0)(12,14)(0)#46:    flow(0)(12,14)(0)#43 - 100 theta(0)(12)(0)#79
                          + 100 theta(0)(14)(0)#81  = 0
 dcDA(0)(12,15)(0)#47:    flow(0)(12,15)(0)#44 - 100 theta(0)(12)(0)#79
                          + 100 theta(0)(15)(0)#82  = 0
 dcDA(0)(12,16)(0)#48:    flow(0)(12,16)(0)#45 - 100 theta(0)(12)(0)#79
                          + 100 theta(0)(16)(0)#83  = 0
 dcDA(0)(14,15)(0)#49:    flow(0)(14,15)(0)#46 - 100 theta(0)(14)(0)#81
                          + 100 theta(0)(15)(0)#82  = 0
 dcDA(0)(16,17)(0)#50:    flow(0)(16,17)(0)#47 - 100 theta(0)(16)(0)#83
                          + 100 theta(0)(17)(0)#84  = 0
 dcDA(0)(15,18)(0)#51:    flow(0)(15,18)(0)#48 - 100 theta(0)(15)(0)#82
                          + 100 theta(0)(18)(0)#85  = 0
 dcDA(0)(18,19)(0)#52:    flow(0)(18,19)(0)#49 - 100 theta(0)(18)(0)#85
                          + 100 theta(0)(19)(0)#86  = 0
 dcDA(0)(19,20)(0)#53:    flow(0)(19,20)(0)#50 - 100 theta(0)(19)(0)#86
                          + 100 theta(0)(20)(0)#87  = 0
 dcDA(0)(10,20)(0)#54:    flow(0)(10,20)(0)#51 - 100 theta(0)(10)(0)#77
                          + 100 theta(0)(20)(0)#87  = 0
 dcDA(0)(10,17)(0)#55:    flow(0)(10,17)(0)#52 - 100 theta(0)(10)(0)#77
                          + 100 theta(0)(17)(0)#84  = 0
 dcDA(0)(10,21)(0)#56:    flow(0)(10,21)(0)#53 - 100 theta(0)(10)(0)#77
                          + 100 theta(0)(21)(0)#88  = 0
 dcDA(0)(10,22)(0)#57:    flow(0)(10,22)(0)#54 - 100 theta(0)(10)(0)#77
                          + 100 theta(0)(22)(0)#89  = 0
 dcDA(0)(21,22)(0)#58:    flow(0)(21,22)(0)#55 - 100 theta(0)(21)(0)#88
                          + 100 theta(0)(22)(0)#89  = 0
 dcDA(0)(15,23)(0)#59:    flow(0)(15,23)(0)#56 - 100 theta(0)(15)(0)#82
                          + 100 theta(0)(23)(0)#90  = 0
 dcDA(0)(22,24)(0)#60:    flow(0)(22,24)(0)#57 - 100 theta(0)(22)(0)#89
                          + 100 theta(0)(24)(0)#91  = 0
 dcDA(0)(23,24)(0)#61:    flow(0)(23,24)(0)#58 - 100 theta(0)(23)(0)#90
                          + 100 theta(0)(24)(0)#91  = 0
 dcDA(0)(24,25)(0)#62:    flow(0)(24,25)(0)#59 - 100 theta(0)(24)(0)#91
                          + 100 theta(0)(25)(0)#92  = 0
 dcDA(0)(25,26)(0)#63:    flow(0)(25,26)(0)#60 - 100 theta(0)(25)(0)#92
                          + 100 theta(0)(26)(0)#93  = 0
 dcDA(0)(25,27)(0)#64:    flow(0)(25,27)(0)#61 - 100 theta(0)(25)(0)#92
                          + 100 theta(0)(27)(0)#94  = 0
 dcDA(0)(28,27)(0)#65:    flow(0)(28,27)(0)#62 + 100 theta(0)(27)(0)#94
                          - 100 theta(0)(28)(0)#95  = 0
 dcDA(0)(27,29)(0)#66:    flow(0)(27,29)(0)#63 - 100 theta(0)(27)(0)#94
                          + 100 theta(0)(29)(0)#96  = 0
 dcDA(0)(27,30)(0)#67:    flow(0)(27,30)(0)#64 - 100 theta(0)(27)(0)#94
                          + 100 theta(0)(30)(0)#97  = 0
 dcDA(0)(29,30)(0)#68:    flow(0)(29,30)(0)#65 - 100 theta(0)(29)(0)#96
                          + 100 theta(0)(30)(0)#97  = 0
 dcDA(0)(8,28)(0)#69:     flow(0)(8,28)(0)#66 - 100 theta(0)(8)(0)#75
                          + 100 theta(0)(28)(0)#95  = 0
 dcDA(0)(6,28)(0)#70:     flow(0)(6,28)(0)#67 - 100 theta(0)(6)(0)#73
                          + 100 theta(0)(28)(0)#95  = 0
 refAngleDA(0)(1)(0)#71:  theta(0)(1)(0)#68  = 0
 fbRT(0)(1)(0)#72:        flow(0)(1,2)(0)#27 + flow(0)(1,3)(0)#28
                          - RTflow(0)(1,2)(0)#98 - RTflow(0)(1,3)(0)#99
                          + RTetaP(0)(1)(0)#169 - RTetaM(0)(1)(0)#170  = 0
 fbRT(0)(2)(0)#73:        - flow(0)(1,2)(0)#27 + flow(0)(2,4)(0)#29
                          + flow(0)(2,5)(0)#31 + flow(0)(2,6)(0)#32
                          + RTflow(0)(1,2)(0)#98 - RTflow(0)(2,4)(0)#100
                          - RTflow(0)(2,5)(0)#102 - RTflow(0)(2,6)(0)#103
                          + RTetaP(0)(2)(0)#171 - RTetaM(0)(2)(0)#172
                          + RTetaP(0)(7)(0)#181 - RTetaM(0)(7)(0)#182  = 0
 fbRT(0)(3)(0)#74:        - flow(0)(1,3)(0)#28 + flow(0)(3,4)(0)#30
                          + RTflow(0)(1,3)(0)#99 - RTflow(0)(3,4)(0)#101
                          + RTetaP(0)(8)(0)#183 - RTetaM(0)(8)(0)#184  = 0
 fbRT(0)(4)(0)#75:        - flow(0)(2,4)(0)#29 - flow(0)(3,4)(0)#30
                          + flow(0)(4,6)(0)#33 + flow(0)(4,12)(0)#41
                          + RTflow(0)(2,4)(0)#100 + RTflow(0)(3,4)(0)#101
                          - RTflow(0)(4,6)(0)#104 - RTflow(0)(4,12)(0)#112
                          + RTetaP(0)(9)(0)#185 - RTetaM(0)(9)(0)#186  = 0
 fbRT(0)(5)(0)#76:        - flow(0)(2,5)(0)#31 + flow(0)(5,7)(0)#34
                          + RTflow(0)(2,5)(0)#102 - RTflow(0)(5,7)(0)#105
                          + RTetaP(0)(3)(0)#173 - RTetaM(0)(3)(0)#174
                          + RTetaP(0)(10)(0)#187 - RTetaM(0)(10)(0)#188  = 0
 fbRT(0)(6)(0)#77:        - flow(0)(2,6)(0)#32 - flow(0)(4,6)(0)#33
                          + flow(0)(6,7)(0)#35 + flow(0)(6,8)(0)#36
                          + flow(0)(6,9)(0)#37 + flow(0)(6,10)(0)#38
                          + flow(0)(6,28)(0)#67 + RTflow(0)(2,6)(0)#103
                          + RTflow(0)(4,6)(0)#104 - RTflow(0)(6,7)(0)#106
                          - RTflow(0)(6,8)(0)#107 - RTflow(0)(6,9)(0)#108
                          - RTflow(0)(6,10)(0)#109 - RTflow(0)(6,28)(0)#138
                           = 0
 fbRT(0)(7)(0)#78:        - flow(0)(5,7)(0)#34 - flow(0)(6,7)(0)#35
                          + RTflow(0)(5,7)(0)#105 + RTflow(0)(6,7)(0)#106
                          + RTetaP(0)(11)(0)#189 - RTetaM(0)(11)(0)#190  = 0
 fbRT(0)(8)(0)#79:        - flow(0)(6,8)(0)#36 + flow(0)(8,28)(0)#66
                          + RTflow(0)(6,8)(0)#107 - RTflow(0)(8,28)(0)#137
                          + RTetaP(0)(4)(0)#175 - RTetaM(0)(4)(0)#176
                          + RTetaP(0)(12)(0)#191 - RTetaM(0)(12)(0)#192  = 0
 fbRT(0)(9)(0)#80:        - flow(0)(6,9)(0)#37 + flow(0)(9,11)(0)#39
                          + flow(0)(9,10)(0)#40 + RTflow(0)(6,9)(0)#108
                          - RTflow(0)(9,11)(0)#110 - RTflow(0)(9,10)(0)#111
                           = 0
 fbRT(0)(10)(0)#81:       - flow(0)(6,10)(0)#38 - flow(0)(9,10)(0)#40
                          + flow(0)(10,20)(0)#51 + flow(0)(10,17)(0)#52
                          + flow(0)(10,21)(0)#53 + flow(0)(10,22)(0)#54
                          + RTflow(0)(6,10)(0)#109 + RTflow(0)(9,10)(0)#111
                          - RTflow(0)(10,20)(0)#122 - RTflow(0)(10,17)(0)#123
                          - RTflow(0)(10,21)(0)#124 - RTflow(0)(10,22)(0)#125
                          + RTetaP(0)(13)(0)#193 - RTetaM(0)(13)(0)#194  = 0
 fbRT(0)(11)(0)#82:       - flow(0)(9,11)(0)#39 + RTflow(0)(9,11)(0)#110
                          + RTetaP(0)(5)(0)#177 - RTetaM(0)(5)(0)#178  = 0
 fbRT(0)(12)(0)#83:       - flow(0)(4,12)(0)#41 + flow(0)(12,13)(0)#42
                          + flow(0)(12,14)(0)#43 + flow(0)(12,15)(0)#44
                          + flow(0)(12,16)(0)#45 + RTflow(0)(4,12)(0)#112
                          - RTflow(0)(12,13)(0)#113 - RTflow(0)(12,14)(0)#114
                          - RTflow(0)(12,15)(0)#115 - RTflow(0)(12,16)(0)#116
                          + RTetaP(0)(14)(0)#195 - RTetaM(0)(14)(0)#196  = 0
 fbRT(0)(13)(0)#84:       - flow(0)(12,13)(0)#42 + RTflow(0)(12,13)(0)#113
                          + RTetaP(0)(6)(0)#179 - RTetaM(0)(6)(0)#180  = 0
 fbRT(0)(14)(0)#85:       - flow(0)(12,14)(0)#43 + flow(0)(14,15)(0)#46
                          + RTflow(0)(12,14)(0)#114 - RTflow(0)(14,15)(0)#117
                          + RTetaP(0)(15)(0)#197 - RTetaM(0)(15)(0)#198  = 0
 fbRT(0)(15)(0)#86:       - flow(0)(12,15)(0)#44 - flow(0)(14,15)(0)#46
                          + flow(0)(15,18)(0)#48 + flow(0)(15,23)(0)#56
                          + RTflow(0)(12,15)(0)#115 + RTflow(0)(14,15)(0)#117
                          - RTflow(0)(15,18)(0)#119 - RTflow(0)(15,23)(0)#127
                          + RTetaP(0)(16)(0)#199 - RTetaM(0)(16)(0)#200  = 0
 fbRT(0)(16)(0)#87:       - flow(0)(12,16)(0)#45 + flow(0)(16,17)(0)#47
                          + RTflow(0)(12,16)(0)#116 - RTflow(0)(16,17)(0)#118
                          + RTetaP(0)(17)(0)#201 - RTetaM(0)(17)(0)#202  = 0
 fbRT(0)(17)(0)#88:       - flow(0)(16,17)(0)#47 - flow(0)(10,17)(0)#52
                          + RTflow(0)(16,17)(0)#118 + RTflow(0)(10,17)(0)#123
                          + RTetaP(0)(18)(0)#203 - RTetaM(0)(18)(0)#204  = 0
 fbRT(0)(18)(0)#89:       - flow(0)(15,18)(0)#48 + flow(0)(18,19)(0)#49
                          + RTflow(0)(15,18)(0)#119 - RTflow(0)(18,19)(0)#120
                          + RTetaP(0)(19)(0)#205 - RTetaM(0)(19)(0)#206  = 0
 fbRT(0)(19)(0)#90:       - flow(0)(18,19)(0)#49 + flow(0)(19,20)(0)#50
                          + RTflow(0)(18,19)(0)#120 - RTflow(0)(19,20)(0)#121
                          + RTetaP(0)(20)(0)#207 - RTetaM(0)(20)(0)#208  = 0
 fbRT(0)(20)(0)#91:       - flow(0)(19,20)(0)#50 - flow(0)(10,20)(0)#51
                          + RTflow(0)(19,20)(0)#121 + RTflow(0)(10,20)(0)#122
                          + RTetaP(0)(21)(0)#209 - RTetaM(0)(21)(0)#210  = 0
 fbRT(0)(21)(0)#92:       - flow(0)(10,21)(0)#53 + flow(0)(21,22)(0)#55
                          + RTflow(0)(10,21)(0)#124 - RTflow(0)(21,22)(0)#126
                          + RTetaP(0)(22)(0)#211 - RTetaM(0)(22)(0)#212  = 0
 fbRT(0)(22)(0)#93:       - flow(0)(10,22)(0)#54 - flow(0)(21,22)(0)#55
                          + flow(0)(22,24)(0)#57 + RTflow(0)(10,22)(0)#125
                          + RTflow(0)(21,22)(0)#126 - RTflow(0)(22,24)(0)#128
                           = 0
 fbRT(0)(23)(0)#94:       - flow(0)(15,23)(0)#56 + flow(0)(23,24)(0)#58
                          + RTflow(0)(15,23)(0)#127 - RTflow(0)(23,24)(0)#129
                          + RTetaP(0)(23)(0)#213 - RTetaM(0)(23)(0)#214  = 0
 fbRT(0)(24)(0)#95:       - flow(0)(22,24)(0)#57 - flow(0)(23,24)(0)#58
                          + flow(0)(24,25)(0)#59 + RTflow(0)(22,24)(0)#128
                          + RTflow(0)(23,24)(0)#129 - RTflow(0)(24,25)(0)#130
                          + RTetaP(0)(24)(0)#215 - RTetaM(0)(24)(0)#216  = 0
 fbRT(0)(25)(0)#96:       - flow(0)(24,25)(0)#59 + flow(0)(25,26)(0)#60
                          + flow(0)(25,27)(0)#61 + RTflow(0)(24,25)(0)#130
                          - RTflow(0)(25,26)(0)#131 - RTflow(0)(25,27)(0)#132
                           = 0
 fbRT(0)(26)(0)#97:       - flow(0)(25,26)(0)#60 + RTflow(0)(25,26)(0)#131
                          + RTetaP(0)(25)(0)#217 - RTetaM(0)(25)(0)#218  = 0
 fbRT(0)(27)(0)#98:       - flow(0)(25,27)(0)#61 - flow(0)(28,27)(0)#62
                          + flow(0)(27,29)(0)#63 + flow(0)(27,30)(0)#64
                          + RTflow(0)(25,27)(0)#132 + RTflow(0)(28,27)(0)#133
                          - RTflow(0)(27,29)(0)#134 - RTflow(0)(27,30)(0)#135
                           = 0
 fbRT(0)(28)(0)#99:       flow(0)(28,27)(0)#62 - flow(0)(8,28)(0)#66
                          - flow(0)(6,28)(0)#67 - RTflow(0)(28,27)(0)#133
                          + RTflow(0)(8,28)(0)#137 + RTflow(0)(6,28)(0)#138
                           = 0
 fbRT(0)(29)(0)#100:      - flow(0)(27,29)(0)#63 + flow(0)(29,30)(0)#65
                          + RTflow(0)(27,29)(0)#134 - RTflow(0)(29,30)(0)#136
                          + RTetaP(0)(26)(0)#219 - RTetaM(0)(26)(0)#220  = 0
 fbRT(0)(30)(0)#101:      - flow(0)(27,30)(0)#64 - flow(0)(29,30)(0)#65
                          + RTflow(0)(27,30)(0)#135 + RTflow(0)(29,30)(0)#136
                          + RTetaP(0)(27)(0)#221 - RTetaM(0)(27)(0)#222  = 0
 dcRT(0)(2,1)(0)#102:     RTflow(0)(1,2)(0)#98 + 100 RTtheta(0)(1)(0)#139
                          - 100 RTtheta(0)(2)(0)#140  = 0
 dcRT(0)(3,1)(0)#103:     RTflow(0)(1,3)(0)#99 + 100 RTtheta(0)(1)(0)#139
                          - 100 RTtheta(0)(3)(0)#141  = 0
 dcRT(0)(4,2)(0)#104:     RTflow(0)(2,4)(0)#100 + 100 RTtheta(0)(2)(0)#140
                          - 100 RTtheta(0)(4)(0)#142  = 0
 dcRT(0)(4,3)(0)#105:     RTflow(0)(3,4)(0)#101 + 100 RTtheta(0)(3)(0)#141
                          - 100 RTtheta(0)(4)(0)#142  = 0
 dcRT(0)(5,2)(0)#106:     RTflow(0)(2,5)(0)#102 + 100 RTtheta(0)(2)(0)#140
                          - 100 RTtheta(0)(5)(0)#143  = 0
 dcRT(0)(6,2)(0)#107:     RTflow(0)(2,6)(0)#103 + 100 RTtheta(0)(2)(0)#140
                          - 100 RTtheta(0)(6)(0)#144  = 0
 dcRT(0)(6,4)(0)#108:     RTflow(0)(4,6)(0)#104 + 100 RTtheta(0)(4)(0)#142
                          - 100 RTtheta(0)(6)(0)#144  = 0
 dcRT(0)(7,5)(0)#109:     RTflow(0)(5,7)(0)#105 + 100 RTtheta(0)(5)(0)#143
                          - 100 RTtheta(0)(7)(0)#145  = 0
 dcRT(0)(7,6)(0)#110:     RTflow(0)(6,7)(0)#106 + 100 RTtheta(0)(6)(0)#144
                          - 100 RTtheta(0)(7)(0)#145  = 0
 dcRT(0)(8,6)(0)#111:     RTflow(0)(6,8)(0)#107 + 100 RTtheta(0)(6)(0)#144
                          - 100 RTtheta(0)(8)(0)#146  = 0
 dcRT(0)(9,6)(0)#112:     RTflow(0)(6,9)(0)#108 + 100 RTtheta(0)(6)(0)#144
                          - 100 RTtheta(0)(9)(0)#147  = 0
 dcRT(0)(10,6)(0)#113:    RTflow(0)(6,10)(0)#109 + 100 RTtheta(0)(6)(0)#144
                          - 100 RTtheta(0)(10)(0)#148  = 0
 dcRT(0)(11,9)(0)#114:    RTflow(0)(9,11)(0)#110 + 100 RTtheta(0)(9)(0)#147
                          - 100 RTtheta(0)(11)(0)#149  = 0
 dcRT(0)(10,9)(0)#115:    RTflow(0)(9,10)(0)#111 + 100 RTtheta(0)(9)(0)#147
                          - 100 RTtheta(0)(10)(0)#148  = 0
 dcRT(0)(12,4)(0)#116:    RTflow(0)(4,12)(0)#112 + 100 RTtheta(0)(4)(0)#142
                          - 100 RTtheta(0)(12)(0)#150  = 0
 dcRT(0)(13,12)(0)#117:   RTflow(0)(12,13)(0)#113 + 100 RTtheta(0)(12)(0)#150
                          - 100 RTtheta(0)(13)(0)#151  = 0
 dcRT(0)(14,12)(0)#118:   RTflow(0)(12,14)(0)#114 + 100 RTtheta(0)(12)(0)#150
                          - 100 RTtheta(0)(14)(0)#152  = 0
 dcRT(0)(15,12)(0)#119:   RTflow(0)(12,15)(0)#115 + 100 RTtheta(0)(12)(0)#150
                          - 100 RTtheta(0)(15)(0)#153  = 0
 dcRT(0)(16,12)(0)#120:   RTflow(0)(12,16)(0)#116 + 100 RTtheta(0)(12)(0)#150
                          - 100 RTtheta(0)(16)(0)#154  = 0
 dcRT(0)(15,14)(0)#121:   RTflow(0)(14,15)(0)#117 + 100 RTtheta(0)(14)(0)#152
                          - 100 RTtheta(0)(15)(0)#153  = 0
 dcRT(0)(17,16)(0)#122:   RTflow(0)(16,17)(0)#118 + 100 RTtheta(0)(16)(0)#154
                          - 100 RTtheta(0)(17)(0)#155  = 0
 dcRT(0)(18,15)(0)#123:   RTflow(0)(15,18)(0)#119 + 100 RTtheta(0)(15)(0)#153
                          - 100 RTtheta(0)(18)(0)#156  = 0
 dcRT(0)(19,18)(0)#124:   RTflow(0)(18,19)(0)#120 + 100 RTtheta(0)(18)(0)#156
                          - 100 RTtheta(0)(19)(0)#157  = 0
 dcRT(0)(20,19)(0)#125:   RTflow(0)(19,20)(0)#121 + 100 RTtheta(0)(19)(0)#157
                          - 100 RTtheta(0)(20)(0)#158  = 0
 dcRT(0)(20,10)(0)#126:   RTflow(0)(10,20)(0)#122 + 100 RTtheta(0)(10)(0)#148
                          - 100 RTtheta(0)(20)(0)#158  = 0
 dcRT(0)(17,10)(0)#127:   RTflow(0)(10,17)(0)#123 + 100 RTtheta(0)(10)(0)#148
                          - 100 RTtheta(0)(17)(0)#155  = 0
 dcRT(0)(21,10)(0)#128:   RTflow(0)(10,21)(0)#124 + 100 RTtheta(0)(10)(0)#148
                          - 100 RTtheta(0)(21)(0)#159  = 0
 dcRT(0)(22,10)(0)#129:   RTflow(0)(10,22)(0)#125 + 100 RTtheta(0)(10)(0)#148
                          - 100 RTtheta(0)(22)(0)#160  = 0
 dcRT(0)(22,21)(0)#130:   RTflow(0)(21,22)(0)#126 + 100 RTtheta(0)(21)(0)#159
                          - 100 RTtheta(0)(22)(0)#160  = 0
 dcRT(0)(23,15)(0)#131:   RTflow(0)(15,23)(0)#127 + 100 RTtheta(0)(15)(0)#153
                          - 100 RTtheta(0)(23)(0)#161  = 0
 dcRT(0)(24,22)(0)#132:   RTflow(0)(22,24)(0)#128 + 100 RTtheta(0)(22)(0)#160
                          - 100 RTtheta(0)(24)(0)#162  = 0
 dcRT(0)(24,23)(0)#133:   RTflow(0)(23,24)(0)#129 + 100 RTtheta(0)(23)(0)#161
                          - 100 RTtheta(0)(24)(0)#162  = 0
 dcRT(0)(25,24)(0)#134:   RTflow(0)(24,25)(0)#130 + 100 RTtheta(0)(24)(0)#162
                          - 100 RTtheta(0)(25)(0)#163  = 0
 dcRT(0)(26,25)(0)#135:   RTflow(0)(25,26)(0)#131 + 100 RTtheta(0)(25)(0)#163
                          - 100 RTtheta(0)(26)(0)#164  = 0
 dcRT(0)(27,25)(0)#136:   RTflow(0)(25,27)(0)#132 + 100 RTtheta(0)(25)(0)#163
                          - 100 RTtheta(0)(27)(0)#165  = 0
 dcRT(0)(27,28)(0)#137:   RTflow(0)(28,27)(0)#133 - 100 RTtheta(0)(27)(0)#165
                          + 100 RTtheta(0)(28)(0)#166  = 0
 dcRT(0)(29,27)(0)#138:   RTflow(0)(27,29)(0)#134 + 100 RTtheta(0)(27)(0)#165
                          - 100 RTtheta(0)(29)(0)#167  = 0
 dcRT(0)(30,27)(0)#139:   RTflow(0)(27,30)(0)#135 + 100 RTtheta(0)(27)(0)#165
                          - 100 RTtheta(0)(30)(0)#168  = 0
 dcRT(0)(30,29)(0)#140:   RTflow(0)(29,30)(0)#136 + 100 RTtheta(0)(29)(0)#167
                          - 100 RTtheta(0)(30)(0)#168  = 0
 dcRT(0)(28,8)(0)#141:    RTflow(0)(8,28)(0)#137 + 100 RTtheta(0)(8)(0)#146
                          - 100 RTtheta(0)(28)(0)#166  = 0
 dcRT(0)(28,6)(0)#142:    RTflow(0)(6,28)(0)#138 + 100 RTtheta(0)(6)(0)#144
                          - 100 RTtheta(0)(28)(0)#166  = 0
 refAngleRT(0)(1)(0)#143: RTtheta(0)(1)(0)#139  = 0
 dgRTP(0)(1)(0)#144:      gen(0)(1)(0)#0 + RTetaP(0)(1)(0)#169
                          - RTetaM(0)(1)(0)#170 + S1 = 200
 dgRTP(0)(2)(0)#145:      gen(0)(2)(0)#1 + RTetaP(0)(2)(0)#171
                          - RTetaM(0)(2)(0)#172 + S2 = 80
 dgRTP(0)(3)(0)#146:      gen(0)(3)(0)#2 + RTetaP(0)(3)(0)#173
                          - RTetaM(0)(3)(0)#174 + S3 = 50
 dgRTP(0)(4)(0)#147:      gen(0)(4)(0)#3 + RTetaP(0)(4)(0)#175
                          - RTetaM(0)(4)(0)#176 + S4 = 35
 dgRTP(0)(5)(0)#148:      gen(0)(5)(0)#4 + RTetaP(0)(5)(0)#177
                          - RTetaM(0)(5)(0)#178 + S5 = 30
 dgRTP(0)(6)(0)#149:      gen(0)(6)(0)#5 + RTetaP(0)(6)(0)#179
                          - RTetaM(0)(6)(0)#180 + S6 = 40
 gaRT(0)(3)(0)#150:       gen(0)(4)(0)#3 + RTetaP(0)(4)(0)#175
                          - RTetaM(0)(4)(0)#176 + S7 = 10.5675258636475
 gaRT(0)(5)(0)#151:       gen(0)(6)(0)#5 + RTetaP(0)(6)(0)#179
                          - RTetaM(0)(6)(0)#180 + S8 = 10.5110635757446
Bounds
 50 <= gen(0)(1)(0)#0 <= 200
 0 <= gen(0)(2)(0)#1 <= 80
 15 <= gen(0)(3)(0)#2 <= 50
 0 <= gen(0)(4)(0)#3 <= 35
 0 <= gen(0)(5)(0)#4 <= 30
 0 <= gen(0)(6)(0)#5 <= 40
-21.7000007629395 <= dem(0)(1)(0)#6 <= 0
-2.40000009536743 <= dem(0)(2)(0)#7 <= 0
-7.59999990463257 <= dem(0)(3)(0)#8 <= 0
-94.1999969482422 <= dem(0)(4)(0)#9 <= 0
-22.7999992370605 <= dem(0)(5)(0)#10 <= 0
-30 <= dem(0)(6)(0)#11 <= 0
-5.80000019073486 <= dem(0)(7)(0)#12 <= 0
-11.1999998092651 <= dem(0)(8)(0)#13 <= 0
-6.19999980926514 <= dem(0)(9)(0)#14 <= 0
-8.19999980926514 <= dem(0)(10)(0)#15 <= 0
-3.5 <= dem(0)(11)(0)#16 <= 0
-9 <= dem(0)(12)(0)#17 <= 0
-3.20000004768372 <= dem(0)(13)(0)#18 <= 0
-9.5 <= dem(0)(14)(0)#19 <= 0
-2.20000004768372 <= dem(0)(15)(0)#20 <= 0
-17.5 <= dem(0)(16)(0)#21 <= 0
-3.20000004768372 <= dem(0)(17)(0)#22 <= 0
-8.69999980926514 <= dem(0)(18)(0)#23 <= 0
-3.5 <= dem(0)(19)(0)#24 <= 0
-2.40000009536743 <= dem(0)(20)(0)#25 <= 0
-10.6000003814697 <= dem(0)(21)(0)#26 <= 0
-50 <= flow(0)(1,2)(0)#27 <= 50
-50 <= flow(0)(1,3)(0)#28 <= 50
-50 <= flow(0)(2,4)(0)#29 <= 50
-50 <= flow(0)(3,4)(0)#30 <= 50
-50 <= flow(0)(2,5)(0)#31 <= 50
-50 <= flow(0)(2,6)(0)#32 <= 50
-50 <= flow(0)(4,6)(0)#33 <= 50
-50 <= flow(0)(5,7)(0)#34 <= 50
-50 <= flow(0)(6,7)(0)#35 <= 50
-50 <= flow(0)(6,8)(0)#36 <= 50
-50 <= flow(0)(6,9)(0)#37 <= 50
-50 <= flow(0)(6,10)(0)#38 <= 50
-50 <= flow(0)(9,11)(0)#39 <= 50
-50 <= flow(0)(9,10)(0)#40 <= 50
-50 <= flow(0)(4,12)(0)#41 <= 50
-50 <= flow(0)(12,13)(0)#42 <= 50
-50 <= flow(0)(12,14)(0)#43 <= 50
-50 <= flow(0)(12,15)(0)#44 <= 50
-50 <= flow(0)(12,16)(0)#45 <= 50
-50 <= flow(0)(14,15)(0)#46 <= 50
-50 <= flow(0)(16,17)(0)#47 <= 50
-50 <= flow(0)(15,18)(0)#48 <= 50
-50 <= flow(0)(18,19)(0)#49 <= 50
-50 <= flow(0)(19,20)(0)#50 <= 50
-50 <= flow(0)(10,20)(0)#51 <= 50
-50 <= flow(0)(10,17)(0)#52 <= 50
-50 <= flow(0)(10,21)(0)#53 <= 50
-50 <= flow(0)(10,22)(0)#54 <= 50
-50 <= flow(0)(21,22)(0)#55 <= 50
-50 <= flow(0)(15,23)(0)#56 <= 50
-50 <= flow(0)(22,24)(0)#57 <= 50
-50 <= flow(0)(23,24)(0)#58 <= 50
-50 <= flow(0)(24,25)(0)#59 <= 50
-50 <= flow(0)(25,26)(0)#60 <= 50
-50 <= flow(0)(25,27)(0)#61 <= 50
-50 <= flow(0)(28,27)(0)#62 <= 50
-50 <= flow(0)(27,29)(0)#63 <= 50
-50 <= flow(0)(27,30)(0)#64 <= 50
-50 <= flow(0)(29,30)(0)#65 <= 50
-50 <= flow(0)(8,28)(0)#66 <= 50
-50 <= flow(0)(6,28)(0)#67 <= 50
-3.1451 <= theta(0)(1)(0)#68 <= 3.1451
-3.1451 <= theta(0)(2)(0)#69 <= 3.1451
-3.1451 <= theta(0)(3)(0)#70 <= 3.1451
-3.1451 <= theta(0)(4)(0)#71 <= 3.1451
-3.1451 <= theta(0)(5)(0)#72 <= 3.1451
-3.1451 <= theta(0)(6)(0)#73 <= 3.1451
-3.1451 <= theta(0)(7)(0)#74 <= 3.1451
-3.1451 <= theta(0)(8)(0)#75 <= 3.1451
-3.1451 <= theta(0)(9)(0)#76 <= 3.1451
-3.1451 <= theta(0)(10)(0)#77 <= 3.1451
-3.1451 <= theta(0)(11)(0)#78 <= 3.1451
-3.1451 <= theta(0)(12)(0)#79 <= 3.1451
-3.1451 <= theta(0)(13)(0)#80 <= 3.1451
-3.1451 <= theta(0)(14)(0)#81 <= 3.1451
-3.1451 <= theta(0)(15)(0)#82 <= 3.1451
-3.1451 <= theta(0)(16)(0)#83 <= 3.1451
-3.1451 <= theta(0)(17)(0)#84 <= 3.1451
-3.1451 <= theta(0)(18)(0)#85 <= 3.1451
-3.1451 <= theta(0)(19)(0)#86 <= 3.1451
-3.1451 <= theta(0)(20)(0)#87 <= 3.1451
-3.1451 <= theta(0)(21)(0)#88 <= 3.1451
-3.1451 <= theta(0)(22)(0)#89 <= 3.1451
-3.1451 <= theta(0)(23)(0)#90 <= 3.1451
-3.1451 <= theta(0)(24)(0)#91 <= 3.1451
-3.1451 <= theta(0)(25)(0)#92 <= 3.1451
-3.1451 <= theta(0)(26)(0)#93 <= 3.1451
-3.1451 <= theta(0)(27)(0)#94 <= 3.1451
-3.1451 <= theta(0)(28)(0)#95 <= 3.1451
-3.1451 <= theta(0)(29)(0)#96 <= 3.1451
-3.1451 <= theta(0)(30)(0)#97 <= 3.1451
-50 <= RTflow(0)(1,2)(0)#98 <= 50
-50 <= RTflow(0)(1,3)(0)#99 <= 50
-50 <= RTflow(0)(2,4)(0)#100 <= 50
-50 <= RTflow(0)(3,4)(0)#101 <= 50
-50 <= RTflow(0)(2,5)(0)#102 <= 50
-50 <= RTflow(0)(2,6)(0)#103 <= 50
-50 <= RTflow(0)(4,6)(0)#104 <= 50
-50 <= RTflow(0)(5,7)(0)#105 <= 50
-50 <= RTflow(0)(6,7)(0)#106 <= 50
-50 <= RTflow(0)(6,8)(0)#107 <= 50
-50 <= RTflow(0)(6,9)(0)#108 <= 50
-50 <= RTflow(0)(6,10)(0)#109 <= 50
-50 <= RTflow(0)(9,11)(0)#110 <= 50
-50 <= RTflow(0)(9,10)(0)#111 <= 50
-50 <= RTflow(0)(4,12)(0)#112 <= 50
-50 <= RTflow(0)(12,13)(0)#113 <= 50
-50 <= RTflow(0)(12,14)(0)#114 <= 50
-50 <= RTflow(0)(12,15)(0)#115 <= 50
-50 <= RTflow(0)(12,16)(0)#116 <= 50
-50 <= RTflow(0)(14,15)(0)#117 <= 50
-50 <= RTflow(0)(16,17)(0)#118 <= 50
-50 <= RTflow(0)(15,18)(0)#119 <= 50
-50 <= RTflow(0)(18,19)(0)#120 <= 50
-50 <= RTflow(0)(19,20)(0)#121 <= 50
-50 <= RTflow(0)(10,20)(0)#122 <= 50
-50 <= RTflow(0)(10,17)(0)#123 <= 50
-50 <= RTflow(0)(10,21)(0)#124 <= 50
-50 <= RTflow(0)(10,22)(0)#125 <= 50
-50 <= RTflow(0)(21,22)(0)#126 <= 50
-50 <= RTflow(0)(15,23)(0)#127 <= 50
-50 <= RTflow(0)(22,24)(0)#128 <= 50
-50 <= RTflow(0)(23,24)(0)#129 <= 50
-50 <= RTflow(0)(24,25)(0)#130 <= 50
-50 <= RTflow(0)(25,26)(0)#131 <= 50
-50 <= RTflow(0)(25,27)(0)#132 <= 50
-50 <= RTflow(0)(28,27)(0)#133 <= 50
-50 <= RTflow(0)(27,29)(0)#134 <= 50
-50 <= RTflow(0)(27,30)(0)#135 <= 50
-50 <= RTflow(0)(29,30)(0)#136 <= 50
-50 <= RTflow(0)(8,28)(0)#137 <= 50
-50 <= RTflow(0)(6,28)(0)#138 <= 50
-3.1451 <= RTtheta(0)(1)(0)#139 <= 3.1451
-3.1451 <= RTtheta(0)(2)(0)#140 <= 3.1451
-3.1451 <= RTtheta(0)(3)(0)#141 <= 3.1451
-3.1451 <= RTtheta(0)(4)(0)#142 <= 3.1451
-3.1451 <= RTtheta(0)(5)(0)#143 <= 3.1451
-3.1451 <= RTtheta(0)(6)(0)#144 <= 3.1451
-3.1451 <= RTtheta(0)(7)(0)#145 <= 3.1451
-3.1451 <= RTtheta(0)(8)(0)#146 <= 3.1451
-3.1451 <= RTtheta(0)(9)(0)#147 <= 3.1451
-3.1451 <= RTtheta(0)(10)(0)#148 <= 3.1451
-3.1451 <= RTtheta(0)(11)(0)#149 <= 3.1451
-3.1451 <= RTtheta(0)(12)(0)#150 <= 3.1451
-3.1451 <= RTtheta(0)(13)(0)#151 <= 3.1451
-3.1451 <= RTtheta(0)(14)(0)#152 <= 3.1451
-3.1451 <= RTtheta(0)(15)(0)#153 <= 3.1451
-3.1451 <= RTtheta(0)(16)(0)#154 <= 3.1451
-3.1451 <= RTtheta(0)(17)(0)#155 <= 3.1451
-3.1451 <= RTtheta(0)(18)(0)#156 <= 3.1451
-3.1451 <= RTtheta(0)(19)(0)#157 <= 3.1451
-3.1451 <= RTtheta(0)(20)(0)#158 <= 3.1451
-3.1451 <= RTtheta(0)(21)(0)#159 <= 3.1451
-3.1451 <= RTtheta(0)(22)(0)#160 <= 3.1451
-3.1451 <= RTtheta(0)(23)(0)#161 <= 3.1451
-3.1451 <= RTtheta(0)(24)(0)#162 <= 3.1451
-3.1451 <= RTtheta(0)(25)(0)#163 <= 3.1451
-3.1451 <= RTtheta(0)(26)(0)#164 <= 3.1451
-3.1451 <= RTtheta(0)(27)(0)#165 <= 3.1451
-3.1451 <= RTtheta(0)(28)(0)#166 <= 3.1451
-3.1451 <= RTtheta(0)(29)(0)#167 <= 3.1451
-3.1451 <= RTtheta(0)(30)(0)#168 <= 3.1451
 0 <= RTetaP(0)(1)(0)#169 <= 200
 0 <= RTetaM(0)(1)(0)#170 <= 200
 0 <= RTetaP(0)(2)(0)#171 <= 80
 0 <= RTetaM(0)(2)(0)#172 <= 80
 0 <= RTetaP(0)(3)(0)#173 <= 50
 0 <= RTetaM(0)(3)(0)#174 <= 50
 0 <= RTetaP(0)(4)(0)#175 <= 35
 0 <= RTetaM(0)(4)(0)#176 <= 35
 0 <= RTetaP(0)(5)(0)#177 <= 30
 0 <= RTetaM(0)(5)(0)#178 <= 30
 0 <= RTetaP(0)(6)(0)#179 <= 40
 0 <= RTetaM(0)(6)(0)#180 <= 40
 0 <= RTetaP(0)(7)(0)#181 <= 21.7000007629395
 0 <= RTetaM(0)(7)(0)#182 <= 21.7000007629395
 0 <= RTetaP(0)(8)(0)#183 <= 2.40000009536743
 0 <= RTetaM(0)(8)(0)#184 <= 2.40000009536743
 0 <= RTetaP(0)(9)(0)#185 <= 7.59999990463257
 0 <= RTetaM(0)(9)(0)#186 <= 7.59999990463257
 0 <= RTetaP(0)(10)(0)#187 <= 94.1999969482422
 0 <= RTetaM(0)(10)(0)#188 <= 94.1999969482422
 0 <= RTetaP(0)(11)(0)#189 <= 22.7999992370605
 0 <= RTetaM(0)(11)(0)#190 <= 22.7999992370605
 0 <= RTetaP(0)(12)(0)#191 <= 30
 0 <= RTetaM(0)(12)(0)#192 <= 30
 0 <= RTetaP(0)(13)(0)#193 <= 5.80000019073486
 0 <= RTetaM(0)(13)(0)#194 <= 5.80000019073486
 0 <= RTetaP(0)(14)(0)#195 <= 11.1999998092651
 0 <= RTetaM(0)(14)(0)#196 <= 11.1999998092651
 0 <= RTetaP(0)(15)(0)#197 <= 6.19999980926514
 0 <= RTetaM(0)(15)(0)#198 <= 6.19999980926514
 0 <= RTetaP(0)(16)(0)#199 <= 8.19999980926514
 0 <= RTetaM(0)(16)(0)#200 <= 8.19999980926514
 0 <= RTetaP(0)(17)(0)#201 <= 3.5
 0 <= RTetaM(0)(17)(0)#202 <= 3.5
 0 <= RTetaP(0)(18)(0)#203 <= 9
 0 <= RTetaM(0)(18)(0)#204 <= 9
 0 <= RTetaP(0)(19)(0)#205 <= 3.20000004768372
 0 <= RTetaM(0)(19)(0)#206 <= 3.20000004768372
 0 <= RTetaP(0)(20)(0)#207 <= 9.5
 0 <= RTetaM(0)(20)(0)#208 <= 9.5
 0 <= RTetaP(0)(21)(0)#209 <= 2.20000004768372
 0 <= RTetaM(0)(21)(0)#210 <= 2.20000004768372
 0 <= RTetaP(0)(22)(0)#211 <= 17.5
 0 <= RTetaM(0)(22)(0)#212 <= 17.5
 0 <= RTetaP(0)(23)(0)#213 <= 3.20000004768372
 0 <= RTetaM(0)(23)(0)#214 <= 3.20000004768372
 0 <= RTetaP(0)(24)(0)#215 <= 8.69999980926514
 0 <= RTetaM(0)(24)(0)#216 <= 8.69999980926514
 0 <= RTetaP(0)(25)(0)#217 <= 3.5
 0 <= RTetaM(0)(25)(0)#218 <= 3.5
 0 <= RTetaP(0)(26)(0)#219 <= 2.40000009536743
 0 <= RTetaM(0)(26)(0)#220 <= 2.40000009536743
 0 <= RTetaP(0)(27)(0)#221 <= 10.6000003814697
 0 <= RTetaM(0)(27)(0)#222 <= 10.6000003814697
End
